&control
    prefix ='2_GNR'
    pseudo_dir = './'
    outdir = './'
    calculation = 'bands'
/
&system
    ecutwfc = 50
    ecutrho = 200
    ibrav = 8
    celldm(1) = 7.9
    celldm(2) = 20
    celldm(3) = 20
    nat = 14
    ntyp = 2
    occupations = 'smearing'
    degauss = 0.05
/
&electrons
 /
&ions
 /
&cell
 /
ATOMIC_SPECIES
C 12.011 C.pbe-n-rrkjus_psl.1.0.0.UPF
H 1.0079 H.pbe-rrkjus_psl.1.0.0.UPF

ATOMIC_POSITIONS {angstrom}
C  0.695       0.0         0.0000
C  2.093       0.0         0.0000
C  0.0         1.218       0.0000
C  2.788       1.218       0.0000
C  0.695       2.443       0.0000
C  2.093       2.443       0.0000
C  0.0         3.661       0.0000
C  2.788       3.661       0.0000
C  0.695       4.886       0.0000
C  2.093       4.886       0.0000
H  0.163      -0.935       0.0000
H  2.625      -0.935       0.0000
H  0.163       5.821       0.0000
H  2.625       5.821       0.0000

K_POINTS {tpiba_b}
50
1.8                   0.000   0.000   1
1.8285714285714285    0.000   0.000   1
1.8571428571428572    0.000   0.000   1
1.8857142857142857    0.000   0.000   1
1.9142857142857144    0.000   0.000   1
1.9428571428571428    0.000   0.000   1
1.9714285714285715    0.000   0.000   1
2.0                   0.000   0.000   1
2.0285714285714285    0.000   0.000   1
2.0571428571428574    0.000   0.000   1
2.085714285714286     0.000   0.000   1
2.1142857142857143    0.000   0.000   1
2.142857142857143     0.000   0.000   1
2.1714285714285717    0.000   0.000   1
2.2                   0.000   0.000   1
2.2285714285714286    0.000   0.000   1
2.257142857142857     0.000   0.000   1
2.2857142857142856    0.000   0.000   1
2.3142857142857145    0.000   0.000   1
2.342857142857143     0.000   0.000   1
2.3714285714285714    0.000   0.000   1
2.4000000000000004    0.000   0.000   1
2.428571428571429     0.000   0.000   1
2.4571428571428573    0.000   0.000   1
2.4857142857142858    0.000   0.000   1
2.5142857142857142    0.000   0.000   1
2.5428571428571427    0.000   0.000   1
2.5714285714285716    0.000   0.000   1
2.6                   0.000   0.000   1
2.6285714285714286    0.000   0.000   1
2.6571428571428575    0.000   0.000   1
2.685714285714286     0.000   0.000   1
2.7142857142857144    0.000   0.000   1
2.742857142857143     0.000   0.000   1
2.7714285714285714    0.000   0.000   1
2.8                   0.000   0.000   1
2.8285714285714287    0.000   0.000   1
2.857142857142857     0.000   0.000   1
2.885714285714286     0.000   0.000   1
2.9142857142857146    0.000   0.000   1
2.942857142857143     0.000   0.000   1
2.9714285714285715    0.000   0.000   1
3.0                   0.000   0.000   1
3.0285714285714285    0.000   0.000   1
3.0571428571428574    0.000   0.000   1
3.085714285714286     0.000   0.000   1
3.1142857142857148    0.000   0.000   1
3.1428571428571432    0.000   0.000   1
3.1714285714285717    0.000   0.000   1
3.2                   0.000   0.000   1
