&bands
    prefix='2_GNR'
    outdir='./'
    filband = 'GNR_2_2.dat'
/
