&control
    prefix ='11_GNR'
    pseudo_dir = './'
    outdir = './'
    calculation = 'scf'
/
&system
    ecutwfc = 40
    ecutrho = 160
    ibrav = 8
    celldm(1) = 7.9
    celldm(2) = 20
    celldm(3) = 20
    nat = 26
    ntyp = 2
    occupations = 'smearing'
    degauss = 0.05
/
&electrons
 /
&ions
 /
&cell
 /
ATOMIC_SPECIES
C 12.011 C.pbe-n-rrkjus_psl.1.0.0.UPF
H 1.0079 H.pbe-rrkjus_psl.1.0.0.UPF


ATOMIC_POSITIONS {angstrom}
C 0.695       0.0       0.0000
C 2.093       0.0       0.0000
C 0.0         1.218       0.0000
C 2.788       1.218       0.0000
C 0.695       2.443       0.0000
C 2.093       2.443       0.0000
C 0.0         3.661       0.0000
C 2.788       3.661       0.0000
C 0.695       4.886       0.0000
C 2.093       4.886       0.0000
C 0.0         6.104       0.0000
C 2.788       6.104       0.0000
C 0.695       7.329000000000001       0.0000
C 2.093       7.329000000000001       0.0000
C 0.0         8.547       0.0000
C 2.788       8.547       0.0000
C 0.695       9.772       0.0000
C 2.093       9.772       0.0000
C 0.0         10.99       0.0000
C 2.788       10.99       0.0000
C 0.695       12.215       0.0000
C 2.093       12.215       0.0000
H 0.163       -0.935       0.0000
H 2.625       -0.935       0.0000
H 0.163       13.15       0.0000
H 2.625       13.15       0.0000
K_POINTS {automatic}
10 1 1 0 0 0
