&CONTROL
    calculation='bands'
    prefix='graphene'
    restart_mode='from_scratch'
    outdir='./outdir'
    pseudo_dir='./'
/
&SYSTEM
    ibrav = 0, celldm(1) = 4.64872627
    nat = 2, ntyp = 1,
    ecutwfc = 40.0 ,
    ecutrho = 400.0 ,
    occupations = 'smearing', degauss = 0.0001, smearing = 'marzari-vanderbilt'
/
&ELECTRONS
    conv_thr = 1.0d-10,
    mixing_beta = 0.3,
/
ATOMIC_SPECIES
C 12.0107 C.upf
CELL_PARAMETERS alat
   1.002305965   0.000000000   0.000000000
  -0.501152982   0.868022428   0.000000000
   0.000000000   0.000000000   8.130081301
ATOMIC_POSITIONS crystal
C 0.000000000 0.000000000 0.250000000
C 0.333333333 0.666666667 0.250000000
K_POINTS crystal_b
2
-0.333333333 0.666666667 0.000000000 100
 1.000000000 0.666666667 0.000000000 100
